StudentsNr = 20;
InstructorsNr = 15;
DaysNr = 2;
SlotsPerDay = 10;
AvailabilitySlotsLenght = 2;
RoomNr = 2;
ProgrammNr = 2;
DegreeNr = 1;
RolesNr = 2;
CoursesNr = 4;
InstructorsProgramm = [{1}, {1, 2}, {1}, {1}, {1, 2}, {1, 2}, {1}, {2}, {1, 2}, {1}, {2}, {2}, {1}, {1, 2}, {1, 2}];
InstructorRolesPerProgramm = [|{3, 4, 5, 6, 13, 14}, {1, 7, 9, 10, 13}|{5, 6, 12, 14}, {9, 12}|];
InstructorsAvailability = [|1, 1, 1, 1, 1, 1, 1, 1, 1, 1, |1, 1, 1, 1, 1, 1, 0, 1, 1, 1, |0, 1, 1, 0, 1, 1, 1, 1, 1, 1, |0, 0, 1, 1, 1, 0, 1, 1, 1, 1, |1, 0, 1, 1, 1, 0, 0, 0, 1, 1, |0, 0, 1, 1, 1, 1, 0, 1, 1, 1, |0, 1, 1, 1, 0, 0, 0, 1, 0, 1, |0, 1, 1, 0, 1, 1, 1, 1, 0, 1, |0, 0, 1, 1, 1, 1, 1, 1, 1, 1, |0, 1, 1, 1, 1, 1, 1, 0, 0, 0, |0, 1, 1, 0, 0, 1, 1, 1, 1, 1, |1, 1, 1, 1, 1, 1, 1, 0, 1, 1, |1, 1, 1, 1, 1, 1, 0, 1, 0, 0, |1, 0, 1, 1, 1, 1, 1, 0, 0, 1, |0, 0, 1, 1, 1, 1, 1, 1, 0, 1|];
StudentsProgramm = [1, 1, 1, 2, 2, 2, 1, 1, 2, 1, 1, 1, 2, 1, 2, 2, 2, 1, 2, 1];
StudentsDegree = [1, 1, 1, 1, 1, 1, 1, 1, 1, 1, 1, 1, 1, 1, 1, 1, 1, 1, 1, 1];
StudentsSupervisorId = [14, 3, 6, 9, 6, 9, 9, 6, 14, 15, 10, 7, 9, 15, 5, 9, 5, 5, 6, 9];
StudentsCourseIds = [{4}, {3}, {2}, {4}, {3}, {3}, {3}, {2}, {4}, {2}, {4}, {4}, {3}, {4}, {3}, {4}, {1}, {4}, {3}, {1}];
StudentsAvailability = [|0, 0, 0, 0, 0, 1, 1, 1, 1, 1, |1, 1, 1, 1, 1, 1, 1, 1, 1, 1, |0, 1, 1, 1, 1, 1, 1, 1, 1, 1, |0, 1, 1, 1, 1, 1, 1, 1, 1, 1, |1, 1, 1, 1, 0, 1, 1, 1, 1, 1, |1, 1, 1, 1, 1, 1, 1, 1, 1, 1, |0, 1, 0, 1, 1, 1, 1, 1, 1, 1, |0, 1, 1, 1, 1, 1, 1, 1, 1, 1, |1, 0, 1, 1, 1, 0, 0, 0, 0, 1, |0, 0, 0, 0, 0, 0, 1, 1, 1, 1, |0, 1, 0, 0, 1, 0, 1, 0, 1, 1, |0, 0, 0, 1, 0, 1, 1, 1, 1, 0, |1, 1, 1, 1, 1, 1, 1, 1, 1, 1, |1, 1, 1, 1, 1, 1, 1, 1, 1, 1, |0, 1, 1, 1, 1, 1, 1, 1, 1, 1, |0, 0, 0, 1, 1, 1, 1, 1, 1, 0, |0, 0, 0, 1, 1, 1, 1, 1, 1, 1, |1, 1, 1, 1, 1, 1, 1, 1, 1, 1, |0, 0, 1, 1, 1, 1, 1, 0, 1, 1, |0, 1, 1, 1, 1, 1, 1, 1, 1, 1|];
TheoryticalMinCard = [0, 0, 0, 0, 0, 0, 0, 0, 0, 0, 0, 0, 0, 1, 0, 0, 0, 0, 0, 0];
CoursesInstructorIds = [{3, 4, 5, 6, 8, 9, 11, 12, 13, 14, 15}, {1, 2, 3, 4, 5, 6, 8, 9, 10, 13, 14, 15}, {1, 2, 4, 5, 7}, {1, 3, 4, 5, 7, 8, 10, 11, 12}];
RolesDemands = [4, 0];
RolesContinuity = [2];
ExamLen = [1, 1, 1, 1, 1, 1, 1, 1, 1, 1, 1, 1, 1, 1, 1, 1, 1, 1, 1, 1];
LunchTsMinLen = 1;
LunchStarts = [5..6, 15..16];
SupervisorAvailable = 5;
OptimalLunchLenght = [2, 1];
OptimalStartTs = [1, 2];
OptimalFinishTs = [1, 9];
MinimizeRooms = 400;
RolesSoftContinuity = [|1, 2|0, 1|];
SameDegreeInRoom = 0;
Mergeability = 1;
